--- Job new1.gms Start 04/06/25 20:48:33 49.3.0 7de46a92 WEX-WEI x86 64bit/MS Windows
--- Applying:
    C:\GAMS\49\gmsprmNT.txt
--- GAMS Parameters defined
    Input C:\users\juand\Documents\vscode\semestre7\SistemasYModelos\gamspy\gms\sensivity\new1\new1.gms
    PageSize 0
    ScrDir C:\users\juand\Documents\vscode\semestre7\SistemasYModelos\gamspy\gms\sensivity\new1\225a\
    SysDir C:\GAMS\49\
    LogOption 3
    ErrMsg 1
    ErrorLog 99
    IDE 1
    LstTitleLeftAligned 1
Licensee: GAMS Demo, for EULA and demo limitations see   G250131/0001CB-GEN
          https://www.gams.com/latest/docs/UG%5FLicense.html         DC0000
          C:\GAMS\49\gamslice.txt
          Demo license for demonstration and instructional purposes only
System information: 8 physical cores and 16 Gb memory detected
GAMS 49.3.0   Copyright (C) 1987-2025 GAMS Development. All rights reserved
--- Starting compilation
--- new1.gms(17) 2 Mb
--- Starting execution: elapsed 0:00:00.003
--- new1.gms(16) 3 Mb
--- Generating LP model MUEBLES
--- new1.gms(17) 3 Mb
---   4 rows  5 columns  17 non-zeroes
--- Range statistics (absolute non-zero finite values)
--- RHS       [min, max] : [ 8.000E+01, 2.000E+02] - Zero values observed as well
--- Bound     [min, max] : [        NA,        NA] - Zero values observed as well
--- Matrix    [min, max] : [ 1.000E+00, 2.000E+04]
--- Executing CPLEX (Solvelink=2): elapsed 0:00:00.008

IBM ILOG CPLEX   49.3.0 7de46a92 Mar 18, 2025          WEI x86 64bit/MS Window

*** This solver runs with a demo license. No commercial use.

Reading parameter(s) from "C:\users\juand\Documents\vscode\semestre7\SistemasYModelos\gamspy\gms\sensivity\new1\cplex.opt"
>>  objrng all 
>>  rhsrng all
Finished reading from "C:\users\juand\Documents\vscode\semestre7\SistemasYModelos\gamspy\gms\sensivity\new1\cplex.opt"

--- GMO setup time: 0.00s
--- GMO memory 0.50 Mb (peak 0.50 Mb)
--- Dictionary memory 0.00 Mb
--- Cplex 22.1.2.0 link memory 0.00 Mb (peak 0.00 Mb)
--- Starting Cplex

Version identifier: 22.1.2.0 | 2024-11-25 | 0edbb82fd
CPXPARAM_Advance                                 0
CPXPARAM_Simplex_Display                         2
CPXPARAM_MIP_Display                             4
CPXPARAM_MIP_Pool_Capacity                       0
CPXPARAM_MIP_Tolerances_AbsMIPGap                0
Tried aggregator 1 time.
LP Presolve eliminated 0 rows and 1 columns.
Reduced LP has 3 rows, 4 columns, and 12 nonzeros.
Presolve time = 0.00 sec. (0.00 ticks)

Iteration      Dual Objective            In Variable           Out Variable
     1  I            0.000000                      C               B1 slack
     2          480000.000000                      D               B3 slack

--- LP status (1): optimal.
--- Cplex Time: 0.00sec (det. 0.01 ticks)

--- Start ranging / sensitivity analysis...
--- Right-hand-side ranging...

EQUATION NAME                            LOWER           CURRENT             UPPER
-------------                            -----           -------             -----
OBJ                                       -INF                NA              +INF   
B1                                         160               200               240   
B2                                         120               144              +INF   
B3                                     66.6667                80                96   

--- Objective ranging...

VARIABLE NAME                            LOWER           CURRENT             UPPER
-------------                            -----           -------             -----
F                                         -INF                NA              +INF   
C                                      18666.7             20000             28000   
D                                        10000             14000             15000   
L                                         -INF              8000             10000   
M                                         -INF              4000              6000   


Optimal solution found
Objective:       480000.000000

--- Reading solution for model MUEBLES
*** Status: Normal completion
--- Job new1.gms Stop 04/06/25 20:48:33 elapsed 0:00:00.107
